20 43
2 20 3
2 4 5
2 10 4
2 8 4
4 20 2
4 10 1
4 8 2
10 20 5
8 20 2
8 10 1
8 9 4
9 18 4
9 11 1
9 12 2
11 18 5
11 12 5
12 18 3
7 9 2
7 18 2
7 11 2
7 12 1
5 14 3
5 6 5
5 16 4
5 13 1
5 7 4
14 16 2
6 14 2
6 16 4
6 13 2
13 14 2
13 16 5
13 15 4
15 17 5
15 19 2
17 19 2
1 15 1
1 17 5
1 19 3
1 3 3
3 15 1
3 17 3
3 19 2
